SECTION Graph 
Nodes 18
Edges 20
E 7 11 1981430
E 8 12 3190105
E 8 11 1205285
E 9 12 393839
E 3 15 1921785
E 3 12 1439171
E 4 13 573690
E 4 11 3793393
E 13 14 776147
E 13 17 2239343
E 14 15 2613116
E 15 16 170002
E 1 16 1340771
E 10 18 1072719
E 10 16 461534
E 2 18 2783118
E 2 17 71057
E 2 14 1534253
E 5 18 1268333
E 6 17 2907508
END 

SECTION Terminals 
Terminals 10
TP 1 6
TP 2 7
TP 3 8
TP 4 9
TP 5 10
END 
